knapPI_6_1000_10000_116
n 1000
c 983721
z 983721
time 0.1
1,5041,5041,1
2,5958,5958,1
3,9432,9432,1
4,1076,1076,1
5,9358,9358,1
6,235,235,1
7,8187,8187,1
8,4487,4487,1
9,8742,8742,1
10,3212,3212,1
11,2647,2647,1
12,1963,1963,1
13,8885,8885,1
14,2174,2174,1
15,8433,8433,1
16,9600,9600,1
17,7635,7635,1
18,3074,3074,1
19,4593,4593,1
20,7347,7347,1
21,2042,2042,1
22,8611,8611,1
23,9555,9555,1
24,7288,7288,1
25,2684,2684,1
26,6406,6406,1
27,5382,5382,1
28,6440,6440,1
29,759,759,1
30,5621,5621,1
31,5011,5011,1
32,5600,5600,1
33,2448,2448,1
34,5080,5080,1
35,1712,1712,1
36,3944,3944,1
37,2415,2415,1
38,8621,8621,1
39,6266,6266,1
40,9342,9342,1
41,7959,7959,1
42,9879,9879,1
43,9935,9935,1
44,7292,7292,1
45,9607,9607,1
46,3854,3854,1
47,4725,4725,1
48,4246,4246,1
49,444,444,1
50,5558,5558,1
51,8571,8571,1
52,1969,1969,1
53,319,319,1
54,7890,7890,1
55,9376,9376,1
56,2139,2139,1
57,1950,1950,1
58,8940,8940,1
59,9245,9245,1
60,7827,7827,1
61,9977,9977,1
62,7462,7462,1
63,829,829,1
64,9287,9287,1
65,1052,1052,1
66,9692,9692,1
67,9654,9654,1
68,8834,8834,1
69,8708,8708,1
70,4818,4818,1
71,5275,5275,1
72,8019,8019,1
73,7473,7473,1
74,459,459,1
75,7414,7414,1
76,9838,9838,1
77,160,160,1
78,7439,7439,1
79,2503,2503,1
80,2684,2684,1
81,6006,6006,1
82,9681,9681,1
83,6931,6931,1
84,8616,8616,1
85,7395,7395,1
86,2310,2310,1
87,3734,3734,1
88,7171,7171,1
89,6443,6443,1
90,7189,7189,1
91,2188,2188,1
92,5237,5237,1
93,718,718,1
94,1707,1707,1
95,4591,4591,1
96,3011,3011,1
97,5721,5721,1
98,8826,8826,1
99,8878,8878,1
100,9135,9135,1
101,3047,3047,1
102,4618,4618,1
103,5142,5142,1
104,1435,1435,1
105,2031,2031,1
106,1202,1202,1
107,9635,9635,1
108,4187,4187,1
109,3513,3513,1
110,3164,3164,1
111,430,430,1
112,4868,4868,1
113,9428,9428,1
114,8007,8007,1
115,9725,9725,1
116,7373,7373,1
117,6312,6312,1
118,1208,1208,1
119,9006,9006,1
120,582,582,1
121,7785,7785,1
122,2488,2488,1
123,3814,3814,1
124,2610,2610,1
125,5501,5501,1
126,5562,5562,1
127,4498,4498,1
128,8546,8546,1
129,7808,7808,1
130,4717,4717,1
131,971,971,1
132,8716,8716,1
133,9774,9774,1
134,8622,8622,1
135,566,566,1
136,4627,4627,1
137,9625,9625,1
138,5433,5433,1
139,3894,3894,1
140,9109,9109,1
141,1574,1574,1
142,121,121,1
143,8854,8854,1
144,995,995,1
145,9612,9612,1
146,7685,7685,1
147,4962,4962,1
148,772,772,1
149,9574,9574,1
150,2779,2779,1
151,2356,2356,1
152,871,871,1
153,3331,3331,1
154,3005,3005,1
155,4357,4357,1
156,8381,8381,1
157,7995,7995,1
158,9894,9894,1
159,9346,9346,1
160,1558,1558,1
161,2274,2274,1
162,2616,2616,1
163,5833,5833,1
164,1646,1646,1
165,2686,2686,1
166,9567,9567,1
167,1455,1455,1
168,9500,9500,1
169,2407,2407,1
170,8507,8507,1
171,3798,3798,1
172,1121,1121,1
173,2949,2949,1
174,1461,1461,1
175,8019,8019,1
176,7262,7262,1
177,552,552,1
178,2910,2910,1
179,2779,2779,1
180,1684,1684,1
181,7448,7448,1
182,9595,9595,1
183,2485,2485,1
184,2116,2116,1
185,4478,4478,1
186,775,775,1
187,6229,6229,1
188,7886,7886,1
189,9974,9974,1
190,815,815,1
191,1295,1295,1
192,1328,1328,1
193,470,470,1
194,819,819,1
195,9091,9091,1
196,384,384,1
197,8840,8840,1
198,6486,6486,1
199,3305,3305,1
200,9915,9915,1
201,2226,2226,1
202,8323,8323,1
203,7566,7566,1
204,8961,8961,1
205,6593,6593,1
206,9705,9705,1
207,9117,9117,1
208,7380,7380,1
209,6008,6008,1
210,3791,3791,1
211,252,252,1
212,9526,9526,1
213,7864,7864,1
214,4316,4316,1
215,6400,6400,1
216,8545,8545,1
217,8759,8759,1
218,4491,4491,1
219,4766,4766,1
220,7805,7805,1
221,8453,8453,1
222,7111,7111,1
223,2331,2331,1
224,9035,9035,1
225,4978,4978,1
226,9807,9807,1
227,8165,8165,1
228,6207,6207,1
229,2026,2026,1
230,4549,4549,1
231,8033,8033,1
232,876,876,1
233,3216,3216,1
234,2323,2323,1
235,8519,8519,1
236,8878,8878,1
237,1638,1638,1
238,6289,6289,1
239,9717,9717,1
240,9142,9142,1
241,7728,7728,1
242,4242,4242,1
243,83,83,1
244,5359,5359,1
245,8297,8297,1
246,5951,5951,1
247,965,965,1
248,861,861,1
249,4249,4249,1
250,2941,2941,1
251,4838,4838,1
252,7881,7881,1
253,1931,1931,1
254,306,306,1
255,559,559,1
256,3105,3105,1
257,9727,9727,1
258,8885,8885,1
259,8518,8518,1
260,5098,5098,1
261,4763,4763,1
262,7415,7415,1
263,3710,3710,1
264,2120,2120,1
265,1640,1640,1
266,5294,5294,1
267,8503,8503,1
268,5258,5258,1
269,6867,6867,1
270,4261,4261,1
271,8116,8116,1
272,3962,3962,1
273,1656,1656,1
274,4052,4052,1
275,7435,7435,1
276,3773,3773,1
277,7080,7080,1
278,9178,9178,1
279,5353,5353,1
280,3950,3950,1
281,289,289,1
282,9667,9667,1
283,615,615,1
284,7358,7358,1
285,8825,8825,1
286,2079,2079,1
287,5424,5424,1
288,4565,4565,1
289,4387,4387,1
290,803,803,1
291,4508,4508,1
292,9436,9436,1
293,1860,1860,1
294,5922,5922,1
295,6253,6253,1
296,827,827,1
297,9327,9327,1
298,1416,1416,1
299,7458,7458,1
300,3123,3123,1
301,9269,9269,1
302,4795,4795,1
303,7322,7322,1
304,1384,1384,1
305,1178,1178,1
306,8985,8985,1
307,1723,1723,1
308,4866,4866,1
309,621,621,1
310,3756,3756,1
311,5467,5467,1
312,2722,2722,1
313,953,953,1
314,9379,9379,1
315,6537,6537,1
316,99,99,1
317,4323,4323,1
318,5472,5472,1
319,9271,9271,1
320,9833,9833,1
321,548,548,1
322,2463,2463,1
323,484,484,1
324,4557,4557,1
325,3728,3728,1
326,2310,2310,1
327,2012,2012,1
328,3625,3625,1
329,1278,1278,1
330,765,765,1
331,9670,9670,1
332,2746,2746,1
333,6960,6960,1
334,2642,2642,1
335,6697,6697,1
336,9768,9768,1
337,3277,3277,1
338,4319,4319,1
339,7586,7586,1
340,5217,5217,1
341,9357,9357,1
342,868,868,1
343,8945,8945,1
344,758,758,1
345,855,855,1
346,2507,2507,1
347,9162,9162,1
348,5755,5755,1
349,1952,1952,1
350,8310,8310,1
351,6202,6202,1
352,8525,8525,1
353,7271,7271,1
354,9030,9030,1
355,8220,8220,1
356,4848,4848,1
357,8369,8369,1
358,1841,1841,1
359,6607,6607,1
360,7639,7639,1
361,6626,6626,1
362,3534,3534,1
363,2664,2664,1
364,8288,8288,1
365,6143,6143,1
366,1996,1996,1
367,1219,1219,1
368,6639,6639,1
369,3104,3104,1
370,3231,3231,1
371,314,314,1
372,4882,4882,1
373,186,186,1
374,76,76,1
375,4871,4871,1
376,4387,4387,1
377,599,599,1
378,9158,9158,1
379,9227,9227,1
380,2795,2795,1
381,8271,8271,1
382,5655,5655,1
383,2832,2832,1
384,4896,4896,1
385,3524,3524,1
386,1374,1374,1
387,5713,5713,1
388,7289,7289,1
389,9785,9785,1
390,9198,9198,1
391,7001,7001,1
392,9594,9594,1
393,2971,2971,1
394,9568,9568,1
395,8780,8780,1
396,427,427,1
397,9377,9377,1
398,6511,6511,1
399,8298,8298,1
400,68,68,1
401,1506,1506,1
402,1721,1721,1
403,6809,6809,1
404,7920,7920,1
405,916,916,1
406,8521,8521,1
407,7148,7148,1
408,9523,9523,1
409,3215,3215,1
410,4222,4222,1
411,7911,7911,1
412,782,782,1
413,3074,3074,1
414,1168,1168,1
415,7342,7342,1
416,3823,3823,1
417,2672,2672,1
418,7753,7753,1
419,910,910,1
420,248,248,1
421,181,181,1
422,1247,1247,1
423,6231,6231,1
424,6442,6442,1
425,9056,9056,1
426,8334,8334,1
427,2458,2458,1
428,2244,2244,1
429,1610,1610,1
430,3583,3583,1
431,3892,3892,1
432,2128,2128,1
433,1400,1400,1
434,3368,3368,1
435,8138,8138,1
436,5004,5004,1
437,8800,8800,1
438,6900,6900,1
439,2961,2961,1
440,2072,2072,1
441,2674,2674,1
442,2068,2068,1
443,8094,8094,1
444,5735,5735,1
445,8426,8426,1
446,7048,7048,1
447,6297,6297,1
448,5117,5117,1
449,4057,4057,1
450,267,267,1
451,2518,2518,1
452,5943,5943,1
453,1539,1539,1
454,8735,8735,1
455,6646,6646,1
456,9407,9407,1
457,742,742,1
458,4885,4885,1
459,5618,5618,1
460,6739,6739,1
461,9581,9581,1
462,8141,8141,1
463,5406,5406,1
464,3074,3074,1
465,3326,3326,1
466,2794,2794,1
467,5332,5332,1
468,2675,2675,1
469,7960,7960,1
470,5431,5431,1
471,6501,6501,1
472,3529,3529,1
473,1150,1150,1
474,9990,9990,1
475,8607,8607,1
476,8209,8209,1
477,6904,6904,1
478,7841,7841,1
479,5686,5686,1
480,35,35,1
481,1713,1713,1
482,4786,4786,1
483,4456,4456,1
484,9553,9553,1
485,53,53,1
486,5057,5057,1
487,8050,8050,1
488,3263,3263,1
489,768,768,1
490,1349,1349,1
491,9195,9195,1
492,3051,3051,1
493,5340,5340,1
494,7897,7897,1
495,8324,8324,1
496,7702,7702,1
497,1786,1786,1
498,1351,1351,1
499,8987,8987,1
500,4052,4052,1
501,1356,1356,1
502,57,57,1
503,6932,6932,1
504,4851,4851,1
505,953,953,1
506,9624,9624,1
507,8864,8864,1
508,7512,7512,1
509,2451,2451,1
510,3195,3195,1
511,8372,8372,1
512,5687,5687,1
513,9287,9287,1
514,76,76,1
515,5044,5044,1
516,9647,9647,1
517,2075,2075,1
518,4898,4898,1
519,2368,2368,1
520,5944,5944,1
521,6659,6659,1
522,2211,2211,1
523,132,132,1
524,3880,3880,1
525,6944,6944,1
526,7120,7120,1
527,5209,5209,1
528,8222,8222,1
529,5201,5201,1
530,97,97,1
531,3934,3934,1
532,5046,5046,1
533,7184,7184,1
534,2069,2069,1
535,7248,7248,1
536,4060,4060,1
537,8319,8319,1
538,2386,2386,1
539,6934,6934,1
540,4776,4776,1
541,2720,2720,1
542,2927,2927,1
543,3378,3378,1
544,3411,3411,1
545,5639,5639,1
546,634,634,1
547,1126,1126,1
548,5027,5027,1
549,977,977,1
550,6779,6779,1
551,4116,4116,1
552,3359,3359,1
553,1185,1185,1
554,5798,5798,1
555,5146,5146,1
556,8442,8442,1
557,2345,2345,1
558,3456,3456,1
559,8958,8958,1
560,1225,1225,1
561,8851,8851,1
562,4816,4816,1
563,8413,8413,1
564,6305,6305,1
565,5820,5820,1
566,6212,6212,1
567,8974,8974,1
568,2440,2440,1
569,1178,1178,1
570,6890,6890,1
571,4632,4632,1
572,1106,1106,1
573,881,881,1
574,3712,3712,1
575,5590,5590,1
576,1160,1160,1
577,6642,6642,1
578,9177,9177,1
579,3244,3244,1
580,7386,7386,1
581,1392,1392,1
582,7397,7397,1
583,3251,3251,1
584,8916,8916,1
585,1997,1997,1
586,8380,8380,1
587,6967,6967,1
588,4367,4367,1
589,4010,4010,1
590,8311,8311,1
591,5653,5653,1
592,6953,6953,1
593,6741,6741,1
594,7801,7801,1
595,4846,4846,1
596,2594,2594,1
597,8400,8400,1
598,7113,7113,1
599,9117,9117,1
600,3365,3365,1
601,611,611,1
602,9890,9890,1
603,5107,5107,1
604,9296,9296,1
605,6482,6482,1
606,1053,1053,1
607,3805,3805,1
608,5347,5347,1
609,1304,1304,1
610,3058,3058,1
611,459,459,1
612,6273,6273,1
613,9245,9245,1
614,5266,5266,1
615,4407,4407,1
616,8545,8545,1
617,8044,8044,1
618,45,45,1
619,6153,6153,1
620,1874,1874,1
621,4952,4952,1
622,6793,6793,1
623,9740,9740,1
624,2633,2633,1
625,2055,2055,1
626,7421,7421,1
627,5479,5479,1
628,1814,1814,1
629,3906,3906,1
630,4736,4736,1
631,6315,6315,1
632,7741,7741,1
633,2264,2264,1
634,3121,3121,1
635,2313,2313,1
636,5328,5328,1
637,2479,2479,1
638,1254,1254,1
639,289,289,1
640,1081,1081,1
641,6914,6914,1
642,7452,7452,1
643,9805,9805,1
644,8786,8786,1
645,4851,4851,1
646,1258,1258,1
647,6824,6824,1
648,5611,5611,1
649,5600,5600,1
650,7387,7387,1
651,8319,8319,1
652,8584,8584,1
653,3089,3089,1
654,3417,3417,1
655,5064,5064,1
656,6732,6732,1
657,1837,1837,1
658,2295,2295,1
659,5285,5285,1
660,3382,3382,1
661,1170,1170,1
662,6270,6270,1
663,6416,6416,1
664,3368,3368,1
665,1400,1400,1
666,2557,2557,1
667,3912,3912,1
668,9760,9760,1
669,2322,2322,1
670,1979,1979,1
671,7963,7963,1
672,6414,6414,1
673,7944,7944,1
674,8554,8554,1
675,6862,6862,1
676,1975,1975,1
677,2425,2425,1
678,4337,4337,1
679,5224,5224,1
680,1202,1202,1
681,6166,6166,1
682,746,746,1
683,8405,8405,1
684,8500,8500,1
685,6589,6589,1
686,9488,9488,1
687,282,282,1
688,6294,6294,1
689,9774,9774,1
690,7762,7762,1
691,233,233,1
692,429,429,1
693,7670,7670,1
694,676,676,1
695,5856,5856,1
696,2180,2180,1
697,9179,9179,1
698,8757,8757,1
699,5064,5064,1
700,6882,6882,1
701,3818,3818,1
702,2622,2622,1
703,187,187,1
704,1625,1625,1
705,5940,5940,1
706,1506,1506,1
707,4640,4640,1
708,4653,4653,1
709,7073,7073,1
710,3551,3551,1
711,4698,4698,1
712,719,719,1
713,6028,6028,1
714,414,414,1
715,3175,3175,1
716,5315,5315,1
717,1348,1348,1
718,3323,3323,1
719,1297,1297,1
720,3286,3286,1
721,5558,5558,1
722,3284,3284,1
723,7816,7816,1
724,9597,9597,1
725,6551,6551,1
726,7993,7993,1
727,4153,4153,1
728,1625,1625,1
729,8346,8346,1
730,6456,6456,1
731,7507,7507,1
732,3860,3860,1
733,7745,7745,1
734,4124,4124,1
735,1136,1136,1
736,692,692,1
737,3690,3690,1
738,4167,4167,1
739,5985,5985,1
740,4005,4005,1
741,4154,4154,1
742,4312,4312,1
743,8318,8318,1
744,1644,1644,1
745,5460,5460,1
746,2721,2721,1
747,1870,1870,1
748,6471,6471,1
749,4077,4077,1
750,3267,3267,1
751,4121,4121,1
752,1330,1330,1
753,4582,4582,1
754,4980,4980,1
755,5375,5375,1
756,2285,2285,1
757,9197,9197,1
758,9691,9691,1
759,6485,6485,1
760,8938,8938,1
761,438,438,1
762,7290,7290,1
763,3623,3623,1
764,296,296,1
765,7595,7595,1
766,6823,6823,1
767,4586,4586,1
768,492,492,1
769,8938,8938,1
770,6294,6294,1
771,914,914,1
772,2717,2717,1
773,8932,8932,1
774,799,799,1
775,4823,4823,1
776,3388,3388,1
777,7416,7416,1
778,8902,8902,1
779,4735,4735,1
780,4480,4480,1
781,5363,5363,1
782,8855,8855,1
783,2108,2108,1
784,9576,9576,1
785,5260,5260,1
786,4405,4405,1
787,9907,9907,1
788,6044,6044,1
789,6433,6433,1
790,2201,2201,1
791,901,901,1
792,9071,9071,1
793,4765,4765,1
794,8287,8287,1
795,1075,1075,1
796,6215,6215,1
797,7301,7301,1
798,7433,7433,1
799,3705,3705,1
800,933,933,1
801,622,622,1
802,2135,2135,1
803,1941,1941,1
804,2028,2028,1
805,3805,3805,1
806,2267,2267,1
807,1391,1391,1
808,5217,5217,1
809,3121,3121,1
810,3972,3972,1
811,639,639,1
812,4513,4513,1
813,7633,7633,1
814,7465,7465,1
815,914,914,1
816,9151,9151,1
817,8364,8364,1
818,7952,7952,1
819,7463,7463,1
820,454,454,1
821,3391,3391,1
822,3284,3284,1
823,8483,8483,1
824,347,347,1
825,213,213,1
826,7271,7271,1
827,5293,5293,1
828,908,908,1
829,8179,8179,1
830,1283,1283,1
831,2037,2037,1
832,8609,8609,1
833,8872,8872,1
834,1538,1538,1
835,3428,3428,1
836,160,160,1
837,5150,5150,1
838,4414,4414,1
839,6931,6931,1
840,8135,8135,1
841,1121,1121,1
842,3452,3452,1
843,7700,7700,1
844,7991,7991,1
845,2970,2970,1
846,7554,7554,1
847,421,421,1
848,4149,4149,1
849,4123,4123,1
850,8142,8142,1
851,4768,4768,1
852,8009,8009,1
853,6898,6898,1
854,7314,7314,1
855,518,518,1
856,4209,4209,1
857,2990,2990,1
858,7571,7571,1
859,7114,7114,1
860,8028,8028,1
861,1338,1338,1
862,9249,9249,1
863,7219,7219,1
864,6216,6216,1
865,3209,3209,1
866,2341,2341,1
867,2791,2791,1
868,4797,4797,1
869,778,778,1
870,8840,8840,1
871,3453,3453,1
872,2751,2751,1
873,1665,1665,1
874,9483,9483,1
875,932,932,1
876,9558,9558,1
877,5413,5413,1
878,7363,7363,1
879,5856,5856,1
880,5702,5702,1
881,5738,5738,1
882,6777,6777,1
883,1779,1779,1
884,1054,1054,1
885,7740,7740,1
886,5537,5537,1
887,7851,7851,1
888,48,48,1
889,1101,1101,1
890,5165,5165,1
891,4978,4978,1
892,7434,7434,1
893,8881,8881,1
894,1111,1111,1
895,3527,3527,1
896,1014,1014,1
897,2220,2220,1
898,131,131,1
899,950,950,1
900,6799,6799,1
901,2156,2156,1
902,241,241,1
903,2036,2036,1
904,5412,5412,1
905,3819,3819,1
906,2591,2591,1
907,836,836,1
908,3231,3231,1
909,5033,5033,1
910,2121,2121,1
911,6366,6366,1
912,8025,8025,1
913,9434,9434,1
914,140,140,1
915,2842,2842,1
916,943,943,1
917,4295,4295,1
918,3872,3872,1
919,9905,9905,1
920,1294,1294,1
921,7226,7226,1
922,5181,5181,1
923,455,455,1
924,2270,2270,1
925,4117,4117,1
926,3551,3551,1
927,8092,8092,1
928,1090,1090,1
929,2250,2250,1
930,9299,9299,1
931,2731,2731,1
932,5544,5544,1
933,3279,3279,1
934,6710,6710,1
935,2829,2829,1
936,5811,5811,1
937,1283,1283,1
938,99,99,1
939,3995,3995,1
940,3493,3493,1
941,4417,4417,1
942,1841,1841,1
943,1233,1233,1
944,8611,8611,1
945,856,856,1
946,3082,3082,1
947,62,62,1
948,1733,1733,1
949,7596,7596,1
950,8366,8366,1
951,8466,8466,1
952,214,214,1
953,860,860,1
954,5510,5510,1
955,541,541,1
956,6133,6133,1
957,442,442,1
958,2922,2922,1
959,8901,8901,1
960,7613,7613,1
961,7152,7152,1
962,5059,5059,1
963,6611,6611,1
964,6403,6403,1
965,9156,9156,1
966,8779,8779,1
967,9742,9742,1
968,221,221,1
969,853,853,1
970,4509,4509,1
971,6018,6018,1
972,4122,4122,1
973,7716,7716,1
974,4462,4462,1
975,4340,4340,1
976,9106,9106,1
977,3962,3962,1
978,6367,6367,1
979,8306,8306,1
980,1982,1982,1
981,5611,5611,1
982,5813,5813,1
983,4185,4185,1
984,2387,2387,1
985,7599,7599,1
986,2868,2868,1
987,5007,5007,1
988,9066,9066,1
989,2292,2292,1
990,632,632,1
991,8539,8539,1
992,3000,3000,1
993,4562,4562,1
994,1156,1156,1
995,4338,4338,1
996,1127,1127,1
997,1186,1186,1
998,3312,3312,1
999,3368,3368,1
1000,8448,8448,1
